NAME : city031.608223.tour
COMMENT : Length = 608223
COMMENT : Found by LKH [Keld Helsgaun] Tue May  7 09:32:07 2024
TYPE : TOUR
DIMENSION : 50
TOUR_SECTION
1
32
35
28
15
23
33
26
41
25
24
34
13
16
5
18
4
11
19
44
37
40
38
9
6
48
14
29
8
22
7
20
21
45
2
3
46
43
27
31
49
17
36
42
39
10
12
47
30
50
-1
EOF
